N = 5;
Capacity = 15;
Demand = [2, 4, 7, 4, 10];
Distance = [|
  0, 21, 53, 42, 26, 16
| 21, 0, 69, 59, 12, 37
| 53, 69, 0, 11, 78, 40
| 42, 59, 11, 0, 67, 30
| 26, 12, 78, 67, 0, 42
| 16, 37, 40, 30, 42, 0
|];
